c CNF
c from Selman's wff generator
p cnf 10  45
5 -4 -6 0
3 -8 7 0
4 1 3 0
-4 -8 -5 0
6 8 -1 0
6 10 -8 0
-10 2 1 0
8 -4 -7 0
-6 -9 -5 0
7 4 5 0
10 1 3 0
-6 1 -10 0
-3 -1 -10 0
7 3 6 0
7 10 8 0
2 1 -4 0
1 5 10 0
5 -2 -10 0
-5 2 -10 0
-7 1 -8 0
7 1 -3 0
3 1 2 0
9 6 -3 0
6 -4 7 0
-9 -6 -10 0
3 -7 -2 0
-6 8 -3 0
1 3 -2 0
8 -7 -1 0
-10 -9 -5 0
-2 -10 -1 0
-7 -2 4 0
10 -2 -7 0
9 -4 -7 0
-2 1 -10 0
-10 -1 -8 0
9 6 -8 0
-10 6 -5 0
9 -3 -4 0
3 2 10 0
-1 -10 -3 0
8 -5 -6 0
-4 7 -6 0
-6 1 2 0
-8 -5 4 0
